
Gurobi 13.0.2 (win64) logging started Wed Jul 22 22:54:01 2026

Set parameter LogFile to value "E:\codes\ExactEBRP\results\gf_paper_safe_gurobi_scheduling_round27\runs\stage2__moderate_seed3302__c2_paper__300s\external\native_logs\L0.1.0.1.1.0.0.0_lp.gurobi.log"
Gurobi Optimizer version 13.0.2 build v13.0.2rc1 (win64 - Windows 10.0 (19045.2))

CPU model: 12th Gen Intel(R) Core(TM) i7-12700KF, instruction set [SSE2|AVX|AVX2]
Thread count: 12 physical cores, 20 logical processors, using up to 1 threads

Non-default parameters:
TimeLimit  2.1364272019999999e+02
MIPGap  0
MIPGapAbs  0
LogToConsole  0
Threads  1

Optimize a model with 11903 rows, 3374 columns and 67328 nonzeros (Min)
Model fingerprint: 0xce49f0a7
Model has 21 linear objective coefficients
Coefficient statistics:
  Matrix range     [7e-03, 1e+04]
  Objective range  [7e-03, 1e+00]
  Bounds range     [3e-02, 3e+02]
  RHS range        [3e-02, 5e+04]

Presolve removed 618 rows and 102 columns
Presolve time: 0.03s
Presolved: 11285 rows, 3348 columns, 65418 nonzeros

Iteration    Objective       Primal Inf.    Dual Inf.      Time
       0    3.3624973e-02   2.746254e+02   0.000000e+00      0s
    2424    1.3951815e-01   0.000000e+00   0.000000e+00      0s

Solved in 2424 iterations and 0.17 seconds (0.51 work units)
Optimal objective  1.395181549e-01

User-callback calls 2568, time in user-callback 0.00 sec
